 vasp.5.4.4.18Apr17-6-g9f103f2a35 (build Aug 06 2018 16:10:39) complex

 executed on             LinuxIFC date 2018.11.05  16:11:05

 INCAR:
 POTCAR:    PAW_PBE Pt_GW 10Mar2009
 POTCAR:    PAW_PBE Se_GW 20Mar2012
 POTCAR:    PAW_PBE Pt_GW 10Mar2009
   VRHFIN =Pt: s1d9

   TITEL  = PAW_PBE Pt_GW 10Mar2009
   POMASS =  195.080; ZVAL   =   10.000    mass and valenz
   ENMAX  =  248.716; ENMIN  =  186.537 eV

 POTCAR:    PAW_PBE Se_GW 20Mar2012
   VRHFIN =Se: s2p4

   TITEL  = PAW_PBE Se_GW 20Mar2012
   POMASS =   78.960; ZVAL   =    6.000    mass and valenz
   ENMAX  =  211.555; ENMIN  =  158.666 eV

 Optimization of the real space projectors (new method)

 maximal supplied QI-value         = 14.36
 optimisation between [QCUT,QGAM] = [  9.48, 19.10] = [ 25.16,102.17] Ry
 Optimized for a Real-space Cutoff    1.71 Angstroem

   l    n(q)    QCUT    max X(q) W(low)/X(q) W(high)/X(q)  e(spline)
   2      9     9.479   126.614    0.21E-03    0.17E-03    0.49E-06
   2      9     9.479   125.648    0.21E-03    0.17E-03    0.50E-06
   0     10     9.479    16.328    0.64E-04    0.43E-04    0.15E-06
   0     10     9.479     9.586    0.45E-04    0.36E-04    0.14E-06
   1      9     9.479    32.965    0.27E-04    0.45E-04    0.15E-06
   1      9     9.479    25.295    0.24E-04    0.38E-04    0.13E-06
   3      8     9.479     9.070    0.24E-03    0.53E-04    0.54E-06
 Optimization of the real space projectors (new method)

 maximal supplied QI-value         = 17.95
 optimisation between [QCUT,QGAM] = [  9.51, 19.03] = [ 25.35,101.40] Ry
 Optimized for a Real-space Cutoff    1.31 Angstroem

   l    n(q)    QCUT    max X(q) W(low)/X(q) W(high)/X(q)  e(spline)
   0      7     9.515     8.579    0.40E-04    0.81E-04    0.21E-07
   0      7     9.515     1.981    0.74E-04    0.22E-03    0.49E-07
   1      7     9.515     4.789    0.24E-03    0.32E-03    0.85E-07
   1      7     9.515     2.182    0.39E-03    0.61E-03    0.12E-06
   2      6     9.515     3.720    0.27E-03    0.22E-03    0.44E-07
  PAW_PBE Pt_GW 10Mar2009               :
  PAW_PBE Se_GW 20Mar2012               :

 POSCAR: Pt1Se2
  positions in direct lattice
 exchange correlation table for  LEXCH =        8
   RHO(1)=    0.500       N(1)  =     2000
   RHO(2)=  100.500       N(2)  =     4000

 ion  position               nearest neighbor table
   1  0.000  0.000  0.000-   2 2.54   3 2.54   3 2.54   2 2.54   3 2.54   2 2.54
   2  0.333  0.667  0.247-   1 2.54   1 2.54   1 2.54
   3  0.667  0.333  0.753-   1 2.54   1 2.54   1 2.54

  LATTYP: Found a hexagonal cell.
 ALAT       =     3.7714982214
 C/A-ratio  =     1.3952210156

  Lattice vectors:

 A1 = (   1.8858181117,  -3.2661734308,  -0.0000570443)
 A2 = (   1.8858181117,   3.2661734308,   0.0000570443)
 A3 = (   0.0000000000,   0.0000538431,   5.2620735785)

Analysis of symmetry for initial positions (statically):
 Subroutine PRICEL returns:
 Original cell was already a primitive cell.

 Routine SETGRP: Setting up the symmetry group for a
 hexagonal supercell.

 Subroutine GETGRP returns: Found 12 space group operations
 (whereof 12 operations were pure point group operations)
 out of a pool of 24 trial point group operations.

The static configuration has the point symmetry D_3d.

Analysis of symmetry for dynamics (positions and initial velocities):
 Subroutine PRICEL returns:
 Original cell was already a primitive cell.

 Routine SETGRP: Setting up the symmetry group for a
 hexagonal supercell.

 Subroutine GETGRP returns: Found 12 space group operations
 (whereof 12 operations were pure point group operations)
 out of a pool of 24 trial point group operations.

The dynamic configuration has the point symmetry D_3d.

 Subroutine INISYM returns: Found 12 space group operations
 (whereof 12 operations are pure point group operations),
 and found     1 'primitive' translations

 KPOINTS: HEX (hexagonal) G-M-K-G-A-L-H-A L-M K-H
  interpolating k-points between supplied coordinates
  k-points in reciprocal lattice
Space group operators:
 irot       det(A)        alpha          n_x          n_y          n_z        tau_x        tau_y        tau_z
    1     1.000000     0.000000     1.000000     0.000000     0.000000     0.000000     0.000000     0.000000
    2    -1.000000     0.000000     1.000000     0.000000     0.000000     0.000000     0.000000     0.000000
    3     1.000000   120.000000     0.000024     0.000004    -1.000000     0.000000     0.000000     0.000000
    4    -1.000000   120.000000     0.000024     0.000004    -1.000000     0.000000     0.000000     0.000000
    5     1.000000   120.000000     0.000024    -0.000004     1.000000     0.000000     0.000000     0.000000
    6    -1.000000   120.000000     0.000024    -0.000004     1.000000     0.000000     0.000000     0.000000
    7     1.000000   180.000000    -0.499982     0.866036    -0.000009     0.000000     0.000000     0.000000
    8    -1.000000   180.000000    -0.499982     0.866036    -0.000009     0.000000     0.000000     0.000000
    9     1.000000   180.000000     0.499982     0.866036    -0.000009     0.000000     0.000000     0.000000
   10    -1.000000   180.000000     0.499982     0.866036    -0.000009     0.000000     0.000000     0.000000
   11     1.000000   179.999999     1.000000     0.000000     0.000000     0.000000     0.000000     0.000000
   12    -1.000000   179.999999     1.000000     0.000000     0.000000     0.000000     0.000000     0.000000

 SYSTEM =  unknown system
 POSCAR =  Pt1Se2

 Startparameter for this run:
   NWRITE =      2    write-flag & timer
   PREC   = normal    normal or accurate (medium, high low for compatibility)
   ISTART =      1    job   : 0-new  1-cont  2-samecut
   ICHARG =     11    charge: 1-file 2-atom 10-const
   ISPIN  =      1    spin polarized calculation?
   LNONCOLLINEAR =      F non collinear calculations
   LSORBIT =      F    spin-orbit coupling
   INIWAV =      1    electr: 0-lowe 1-rand  2-diag
   LASPH  =      F    aspherical Exc in radial PAW
   METAGGA=      F    non-selfconsistent MetaGGA calc.

 Electronic Relaxation 1
   ENCUT  =  350.0 eV  25.72 Ry    5.07 a.u.   5.75  5.75  8.03*2*pi/ulx,y,z
   ENINI  =  350.0     initial cutoff
   ENAUG  =  601.1 eV  augmentation charge cutoff
   NELM   =     60;   NELMIN=  2; NELMDL=  0     # of ELM steps
   EDIFF  = 0.1E-02   stopping-criterion for ELM
   LREAL  =      T    real-space projection
   NLSPLINE    = F    spline interpolate recip. space projectors
   LCOMPAT=      F    compatible to vasp.4.4
   GGA_COMPAT  = T    GGA compatible to vasp.4.4-vasp.4.6
   LMAXPAW     = -100 max onsite density
   LMAXMIX     =    2 max onsite mixed and CHGCAR
   VOSKOWN=      0    Vosko Wilk Nusair interpolation
   ROPT   =   -0.00050  -0.00050
 Ionic relaxation
   EDIFFG = 0.1E-01   stopping-criterion for IOM
   NSW    =      0    number of steps for IOM
   NBLOCK =      1;   KBLOCK =      1    inner block; outer block
   IBRION =     -1    ionic relax: 0-MD 1-quasi-New 2-CG
   NFREE  =      0    steps in history (QN), initial steepest desc. (CG)
   ISIF   =      2    stress and relaxation
   IWAVPR =     10    prediction:  0-non 1-charg 2-wave 3-comb
   ISYM   =      2    0-nonsym 1-usesym 2-fastsym
   LCORR  =      T    Harris-Foulkes like correction to forces

   POTIM  = 0.5000    time-step for ionic-motion
   TEIN   =    0.0    initial temperature
   TEBEG  =    0.0;   TEEND  =   0.0 temperature during run
   SMASS  =  -3.00    Nose mass-parameter (am)
   estimated Nose-frequenzy (Omega)   =  0.10E-29 period in steps =****** mass=  -0.325E-27a.u.
   SCALEE = 1.0000    scale energy and forces
   NPACO  =    256;   APACO  = 16.0  distance and # of slots for P.C.
   PSTRESS=    0.0 pullay stress

  Mass of Ions in am
   POMASS = 195.08 78.96
  Ionic Valenz
   ZVAL   =  10.00  6.00
  Atomic Wigner-Seitz radii
  virtual crystal weights
   VCA    =   1.00  1.00
   NELECT =      22.0000    total number of electrons
   NUPDOWN=      -1.0000    fix difference up-down

 DOS related values:
   EMIN   =  10.00;   EMAX   =-10.00  energy-range for DOS
   EFERMI =   0.00
   ISMEAR =     0;   SIGMA  =   0.10  broadening in eV -4-tet -1-fermi 0-gaus

 Electronic relaxation 2 (details)
   IALGO  =     38    algorithm
   LDIAG  =      T    sub-space diagonalisation (order eigenvalues)
   LSUBROT=      F    optimize rotation matrix (better conditioning)
   TURBO    =      0    0=normal 1=particle mesh
   IRESTART =      0    0=no restart 2=restart with 2 vectors
   NREBOOT  =      0    no. of reboots
   NMIN     =      0    reboot dimension
   EREF     =   0.00    reference energy to select bands
   IMIX   =      4    mixing-type and parameters
     AMIX     =   0.40;   BMIX     =  1.00
     AMIX_MAG =   1.60;   BMIX_MAG =  1.00
     AMIN     =   0.10
     WC   =   100.;   INIMIX=   1;  MIXPRE=   1;  MAXMIX= -45

 Intra band minimization:
   WEIMIN = 0.0000     energy-eigenvalue tresh-hold
   EBREAK =  0.16E-04  absolut break condition
   DEPER  =   0.30     relativ break condition

   TIME   =   0.40     timestep for ELM

  volume/ion in A,a.u.               =      21.61       145.81
  Fermi-wavevector in a.u.,A,eV,Ry     =   1.141932  2.157939 17.742129  1.304010
  Thomas-Fermi vector in A             =   2.278632

 Write flags
   LWAVE        =      T    write WAVECAR
   LDOWNSAMPLE  =      F    k-point downsampling of WAVECAR
   LCHARG       =      T    write CHGCAR
   LVTOT        =      F    write LOCPOT, total local potential
   LVHAR        =      F    write LOCPOT, Hartree potential only
   LELF         =      F    write electronic localiz. function (ELF)
   LORBIT       =     11    0 simple, 1 ext, 2 COOP (PROOUT), +10 PAW based schemes

 Dipole corrections
   LMONO  =      F    monopole corrections only (constant potential shift)
   LDIPOL =      F    correct potential (dipole corrections)
   IDIPOL =      0    1-x, 2-y, 3-z, 4-all directions
   EPSILON=  1.0000000 bulk dielectric constant

 Exchange correlation treatment:
   GGA     =    --    GGA type
   VOSKOWN=      0    Vosko Wilk Nusair interpolation
   LHFCALC =     F    Hartree Fock is set to
   LHFONE  =     F    Hartree Fock one center treatment
   AEXX    =    0.0000 exact exchange contribution

 Linear response parameters
   LEPSILON=     F    determine dielectric tensor
   LRPA    =     F    only Hartree local field effects (RPA)
   LNABLA  =     F    use nabla operator in PAW spheres
   LVEL    =     F    velocity operator in full k-point grid
   LINTERFAST=   F  fast interpolation
   KINTER  =     0    interpolate to denser k-point grid
   CSHIFT  =0.1000    complex shift for real part using Kramers Kronig
   OMEGAMAX=  -1.0    maximum frequency
   DEG_THRESHOLD= 0.2000000E-02 threshold for treating states as degnerate
   RTIME   =   -0.100 relaxation time in fs
  (WPLASMAI=    0.000 imaginary part of plasma frequency in eV, 0.658/RTIME)
   DFIELD  = 0.0000000 0.0000000 0.0000000 field for delta impulse in time

 Orbital magnetization related:
   ORBITALMAG=     F  switch on orbital magnetization
   LCHIMAG   =     F  perturbation theory with respect to B field
   DQ        =  0.001000  dq finite difference perturbation B field
[...]
 k-point  3 :   0.0526 0.0000 0.0000  plane waves:     948
 k-point  4 :   0.0789 0.0000 0.0000  plane waves:     946
 k-point  5 :   0.1053 0.0000 0.0000  plane waves:     948
 k-point  6 :   0.1316 0.0000 0.0000  plane waves:     948
 k-point  7 :   0.1579 0.0000 0.0000  plane waves:     948
 k-point  8 :   0.1842 0.0000 0.0000  plane waves:     954
 k-point  9 :   0.2105 0.0000 0.0000  plane waves:     954
 k-point 10 :   0.2368 0.0000 0.0000  plane waves:     962
 k-point 11 :   0.2632 0.0000 0.0000  plane waves:     960
 k-point 12 :   0.2895 0.0000 0.0000  plane waves:     964
 k-point 13 :   0.3158 0.0000 0.0000  plane waves:     966
 k-point 14 :   0.3421 0.0000 0.0000  plane waves:     962
 k-point 15 :   0.3684 0.0000 0.0000  plane waves:     954
 k-point 16 :   0.3947 0.0000 0.0000  plane waves:     964
 k-point 17 :   0.4211 0.0000 0.0000  plane waves:     962
 k-point 18 :   0.4474 0.0000 0.0000  plane waves:     964
 k-point 19 :   0.4737 0.0000 0.0000  plane waves:     972
 k-point 20 :   0.5000 0.0000 0.0000  plane waves:     972
 k-point 21 :   0.5000 0.0000 0.0000  plane waves:     972
 k-point 22 :   0.4912 0.0175 0.0000  plane waves:     970
 k-point 23 :   0.4825 0.0351 0.0000  plane waves:     970
 k-point 24 :   0.4737 0.0526 0.0000  plane waves:     966
 k-point 25 :   0.4649 0.0702 0.0000  plane waves:     962
 k-point 26 :   0.4561 0.0877 0.0000  plane waves:     958
 k-point 27 :   0.4474 0.1053 0.0000  plane waves:     956
 k-point 28 :   0.4386 0.1228 0.0000  plane waves:     952
 k-point 29 :   0.4298 0.1403 0.0000  plane waves:     956
 k-point 30 :   0.4210 0.1579 0.0000  plane waves:     956
 k-point 31 :   0.4123 0.1754 0.0000  plane waves:     960
 k-point 32 :   0.4035 0.1930 0.0000  plane waves:     966
 k-point 33 :   0.3947 0.2105 0.0000  plane waves:     962
 k-point 34 :   0.3859 0.2280 0.0000  plane waves:     958
 k-point 35 :   0.3772 0.2456 0.0000  plane waves:     958
 k-point 36 :   0.3684 0.2631 0.0000  plane waves:     958
 k-point 37 :   0.3596 0.2807 0.0000  plane waves:     958
 k-point 38 :   0.3508 0.2982 0.0000  plane waves:     958
 k-point 39 :   0.3421 0.3158 0.0000  plane waves:     958
 k-point 40 :   0.3333 0.3333 0.0000  plane waves:     966
 k-point 41 :   0.3333 0.3333 0.0000  plane waves:     966
 k-point 42 :   0.3158 0.3158 0.0000  plane waves:     956
 k-point 43 :   0.2982 0.2982 0.0000  plane waves:     956
 k-point 44 :   0.2807 0.2807 0.0000  plane waves:     960
 k-point 45 :   0.2631 0.2631 0.0000  plane waves:     958
 k-point 46 :   0.2456 0.2456 0.0000  plane waves:     952
 k-point 47 :   0.2280 0.2280 0.0000  plane waves:     960
 k-point 48 :   0.2105 0.2105 0.0000  plane waves:     970
 k-point 49 :   0.1930 0.1930 0.0000  plane waves:     960
 k-point 50 :   0.1754 0.1754 0.0000  plane waves:     956
 k-point 51 :   0.1579 0.1579 0.0000  plane waves:     956
 k-point 52 :   0.1403 0.1403 0.0000  plane waves:     962
 k-point 53 :   0.1228 0.1228 0.0000  plane waves:     961
 k-point 54 :   0.1053 0.1053 0.0000  plane waves:     957
 k-point 55 :   0.0877 0.0877 0.0000  plane waves:     955
 k-point 56 :   0.0702 0.0702 0.0000  plane waves:     955
 k-point 57 :   0.0526 0.0526 0.0000  plane waves:     947
 k-point 58 :   0.0351 0.0351 0.0000  plane waves:     939
 k-point 59 :   0.0175 0.0175 0.0000  plane waves:     943
 k-point 60 :   0.0000 0.0000 0.0000  plane waves:     941
[...]
 k-point 85 :   0.1053 0.0000 0.5000  plane waves:     972
 k-point 86 :   0.1316 0.0000 0.5000  plane waves:     972
 k-point 87 :   0.1579 0.0000 0.5000  plane waves:     964
 k-point 88 :   0.1842 0.0000 0.5000  plane waves:     968
 k-point 89 :   0.2105 0.0000 0.5000  plane waves:     964
 k-point 90 :   0.2368 0.0000 0.5000  plane waves:     966
 k-point 91 :   0.2632 0.0000 0.5000  plane waves:     970
 k-point 92 :   0.2895 0.0000 0.5000  plane waves:     972
 k-point 93 :   0.3158 0.0000 0.5000  plane waves:     972
 k-point 94 :   0.3421 0.0000 0.5000  plane waves:     976
 k-point 95 :   0.3684 0.0000 0.5000  plane waves:     976
 k-point 96 :   0.3947 0.0000 0.5000  plane waves:     974
 k-point 97 :   0.4211 0.0000 0.5000  plane waves:     962
 k-point 98 :   0.4474 0.0000 0.5000  plane waves:     970
 k-point 99 :   0.4737 0.0000 0.5000  plane waves:     966
 k-point ** :   0.5000 0.0000 0.5000  plane waves:     964
 k-point ** :   0.5000 0.0000 0.5000  plane waves:     964
 k-point ** :   0.4912 0.0175 0.5000  plane waves:     964
 k-point ** :   0.4825 0.0351 0.5000  plane waves:     968
 k-point ** :   0.4737 0.0526 0.5000  plane waves:     972
 k-point ** :   0.4649 0.0702 0.5000  plane waves:     972
 k-point ** :   0.4561 0.0877 0.5000  plane waves:     972
 k-point ** :   0.4474 0.1053 0.5000  plane waves:     972
 k-point ** :   0.4386 0.1228 0.5000  plane waves:     972
 k-point ** :   0.4298 0.1403 0.5000  plane waves:     972
 k-point ** :   0.4210 0.1579 0.5000  plane waves:     968
 k-point ** :   0.4123 0.1754 0.5000  plane waves:     956
 k-point ** :   0.4035 0.1930 0.5000  plane waves:     958
 k-point ** :   0.3947 0.2105 0.5000  plane waves:     962
 k-point ** :   0.3859 0.2280 0.5000  plane waves:     958
 k-point ** :   0.3772 0.2456 0.5000  plane waves:     960
 k-point ** :   0.3684 0.2631 0.5000  plane waves:     956
 k-point ** :   0.3596 0.2807 0.5000  plane waves:     952
 k-point ** :   0.3508 0.2982 0.5000  plane waves:     952
 k-point ** :   0.3421 0.3158 0.5000  plane waves:     956
 k-point ** :   0.3333 0.3333 0.5000  plane waves:     960
 k-point ** :   0.3333 0.3333 0.5000  plane waves:     960
 k-point ** :   0.3158 0.3158 0.5000  plane waves:     960
 k-point ** :   0.2982 0.2982 0.5000  plane waves:     966
 k-point ** :   0.2807 0.2807 0.5000  plane waves:     962
 k-point ** :   0.2631 0.2631 0.5000  plane waves:     956
 k-point ** :   0.2456 0.2456 0.5000  plane waves:     952
 k-point ** :   0.2280 0.2280 0.5000  plane waves:     956
 k-point ** :   0.2105 0.2105 0.5000  plane waves:     960
 k-point ** :   0.1930 0.1930 0.5000  plane waves:     960
 k-point ** :   0.1754 0.1754 0.5000  plane waves:     960
 k-point ** :   0.1579 0.1579 0.5000  plane waves:     966
 k-point ** :   0.1403 0.1403 0.5000  plane waves:     962
 k-point ** :   0.1228 0.1228 0.5000  plane waves:     956
 k-point ** :   0.1053 0.1053 0.5000  plane waves:     964
 k-point ** :   0.0877 0.0877 0.5000  plane waves:     970
 k-point ** :   0.0702 0.0702 0.5000  plane waves:     970
 k-point ** :   0.0526 0.0526 0.5000  plane waves:     970
 k-point ** :   0.0351 0.0351 0.5000  plane waves:     970
 k-point ** :   0.0175 0.0175 0.5000  plane waves:     972
 k-point ** :   0.0000 0.0000 0.5000  plane waves:     976
 k-point ** :   0.5000 0.0000 0.5000  plane waves:     964
 k-point ** :   0.5000 0.0000 0.4737  plane waves:     968
 k-point ** :   0.5000 0.0000 0.4474  plane waves:     968
 k-point ** :   0.5000 0.0000 0.4211  plane waves:     966
 k-point ** :   0.5000 0.0000 0.3947  plane waves:     966
 k-point ** :   0.5000 0.0000 0.3684  plane waves:     962
 k-point ** :   0.5000 0.0000 0.3421  plane waves:     960
 k-point ** :   0.5000 0.0000 0.3158  plane waves:     968
 k-point ** :   0.5000 0.0000 0.2895  plane waves:     968
 k-point ** :   0.5000 0.0000 0.2632  plane waves:     962
 k-point ** :   0.5000 0.0000 0.2368  plane waves:     966
 k-point ** :   0.5000 0.0000 0.2105  plane waves:     974
 k-point ** :   0.5000 0.0000 0.1842  plane waves:     974
 k-point ** :   0.5000 0.0000 0.1579  plane waves:     974
 k-point ** :   0.5000 0.0000 0.1316  plane waves:     968
 k-point ** :   0.5000 0.0000 0.1053  plane waves:     976
 k-point ** :   0.5000 0.0000 0.0789  plane waves:     974
 k-point ** :   0.5000 0.0000 0.0526  plane waves:     972
 k-point ** :   0.5000 0.0000 0.0263  plane waves:     974
[...]
 k-point ** :   0.3333 0.3333 0.1316  plane waves:     963
 k-point ** :   0.3333 0.3333 0.1579  plane waves:     957
 k-point ** :   0.3333 0.3333 0.1842  plane waves:     957
 k-point ** :   0.3333 0.3333 0.2105  plane waves:     960
 k-point ** :   0.3333 0.3333 0.2368  plane waves:     954
 k-point ** :   0.3333 0.3333 0.2632  plane waves:     954
 k-point ** :   0.3333 0.3333 0.2895  plane waves:     954
 k-point ** :   0.3333 0.3333 0.3158  plane waves:     963
 k-point ** :   0.3333 0.3333 0.3421  plane waves:     957
 k-point ** :   0.3333 0.3333 0.3684  plane waves:     963
 k-point ** :   0.3333 0.3333 0.3947  plane waves:     963
 k-point ** :   0.3333 0.3333 0.4211  plane waves:     951
 k-point ** :   0.3333 0.3333 0.4474  plane waves:     951
 k-point ** :   0.3333 0.3333 0.4737  plane waves:     960
 k-point ** :   0.3333 0.3333 0.5000  plane waves:     960

 maximum and minimum number of plane-waves per node :       172      150

 maximum number of plane-waves:       976
 maximum index in each direction:
   IXMAX=    5   IYMAX=    5   IZMAX=    8
   IXMIN=   -6   IYMIN=   -6   IZMIN=   -8

 real space projection operators:
  max/ min on nodes  :        122.18        113.37

 parallel 3D FFT for wavefunctions:
    minimum data exchange during FFTs selected (reduces bandwidth)
 parallel 3D FFT for charge:
    minimum data exchange during FFTs selected (reduces bandwidth)

 initial charge density was supplied:
 number of electron      22.0000023 magnetization
 keeping initial charge density in first step

 Maximum index for non-local projection operator          429
 Maximum index for augmentation-charges          370 (set IRDMAX)

 First call to EWALD:  gamma=   0.441
 Maximum number of real-space cells 3x 3x 2
 Maximum number of reciprocal cells 3x 3x 3

--------------------------------------- Iteration      1(   1)  ---------------------------------------

 eigenvalue-minimisations  :  8224
 total energy-change (2. order) :-0.1034150E+02  (-0.5117534E+02)
 number of electron      22.0000023 magnetization
 augmentation part       22.0000023 magnetization

 Free energy of the ion-electron system (eV)
  alpha Z        PSCENC =        72.03602387
  Ewald energy   TEWEN  =     -1138.01183584
  -Hartree energ DENC   =      -248.03827096
  -exchange      EXHF   =         0.00000000
  -V(xc)+E(xc)   XCENC  =       -52.28411500
  PAW double counting   =      1376.09046217    -1266.76182107
  entropy T*S    EENTRO =        -0.00681805
  eigenvalues    EBANDS =         3.29606930
  atomic energy  EATOM  =      1243.33880873
  Solvation  Ediel_sol  =         0.00000000
  free energy    TOTEN  =       -10.34149684 eV

  energy without entropy =      -10.33467879  energy(sigma->0) =      -10.33808782

[...]

--------------------------------------- Iteration      1(   5)  ---------------------------------------

 eigenvalue-minimisations  :  4800
 total energy-change (2. order) :-0.1128341E-04  (-0.1127774E-04)
 number of electron      22.0000023 magnetization
 augmentation part       22.0000023 magnetization

 Free energy of the ion-electron system (eV)
  alpha Z        PSCENC =        72.03602387
  Ewald energy   TEWEN  =     -1138.01183584
  -Hartree energ DENC   =      -248.03827096
  -exchange      EXHF   =         0.00000000
  -V(xc)+E(xc)   XCENC  =       -52.28411500
  PAW double counting   =      1376.09046217    -1266.76182107
  entropy T*S    EENTRO =        -0.00889513
  eigenvalues    EBANDS =        -0.47321758
  atomic energy  EATOM  =      1243.33880873
  Solvation  Ediel_sol  =         0.00000000
  free energy    TOTEN  =       -14.11286081 eV

  energy without entropy =      -14.10396568  energy(sigma->0) =      -14.10841324

 average (electrostatic) potential at core
  the test charge radii are     1.1311  1.0808
  (the norm of the test charge is              1.0000)
       1 -82.0948       2 -53.4831       3 -53.4831

 E-fermi :   5.7570     XC(G=0): -10.3776     alpha+bet :-10.4562

 k-point     1 :       0.0000    0.0000    0.0000
  band No.  band energies     occupation
      1      -9.5381      2.00000
      2      -7.1353      2.00000
      3      -1.0620      2.00000
      4      -0.3530      2.00000
      5      -0.3526      2.00000
      6       1.9072      2.00000
      7       1.9073      2.00000
      8       3.1851      2.00000
      9       4.6870      2.00000
     10       4.6873      2.00000
     11       5.9330      0.01280
     12       7.1499      0.00000
     13       7.1499      0.00000
     14       9.5103      0.00000
     15       9.5279      0.00000
     16      13.0195      0.00000

[...]

 k-point   180 :       0.3333    0.3333    0.5000
  band No.  band energies     occupation
      1      -7.7236      2.00000
      2      -7.7236      2.00000
      3      -0.3300      2.00000
      4      -0.3299      2.00000
      5      -0.3182      2.00000
      6       1.3934      2.00000
      7       1.3939      2.00000
      8       1.8466      2.00000
      9       2.2166      2.00000
     10       3.3245      2.00000
     11       3.3245      2.00000
     12       7.4625      0.00000
     13       7.4626      0.00000
     14      11.8379      0.00000
     15      12.7422      0.00000
     16      12.7522      0.00000

 soft charge-density along one line, spin component           1
         0         1         2         3         4         5         6         7         8         9
 total charge-density along one line

------------------------ aborting loop because EDIFF is reached ----------------------------------------

 total charge

# of ion       s       p       d       f       tot
    1        0.651   0.626   7.943   0.059   9.278
    2        1.479   2.204   0.059   0.000   3.742
    3        1.479   2.204   0.059   0.000   3.742
tot          3.608   5.035   8.061   0.059  16.763

  FORCE on cell =-STRESS in cart. coord.  units (eV):
  Direction    XX          YY          ZZ          XY          YZ          ZX
  Alpha Z    72.03602    72.03602    72.03602
  Ewald    -270.35105  -270.31394  -597.34729     0.00000    -0.02149    -0.00000
  Hartree   154.67058   154.67167   -61.24321     0.00000     0.00141    -0.00000
  E(xc)     -97.08852   -97.08794   -97.52846    -0.00000    -0.00015     0.00000
  Local    -303.03389  -303.04016   232.69410    -0.00000     0.00581     0.00000
  n-local    92.43587    88.20468    89.97391    -2.62186    -1.39537     1.77437
  augment    52.85768    52.85419    54.08321     0.00000     0.00097     0.00000
  Kinetic   301.87529   300.27326   307.31367    -1.01063    -2.18644     2.41419
  Fock        0.00000     0.00000     0.00000     0.00000     0.00000     0.00000
  Total       0.49979     0.49975    -0.01792     0.00000     0.00001     0.00000
  in kB      12.35311    12.35190    -0.44293     0.00000     0.00021     0.00000

 VOLUME and BASIS-vectors are now :
  energy-cutoff  :      350.00
  volume of cell :       64.82
      direct lattice vectors                 reciprocal lattice vectors
     1.885818112 -3.266173431 -0.000057044     0.265136917 -0.153084339  0.000001566
     1.885818112  3.266173431  0.000057044     0.265136917  0.153084339 -0.000001566
     0.000000000  0.000053843  5.262073579     0.000000000 -0.000003319  0.190039152

  length of vectors
     3.771498221  3.771498221  5.262073579     0.306157475  0.306157475  0.190039152

 FORCES acting on ions
    electron-ion (+dipol)            ewald-force                    non-local-force                 convergence-correction
   0.265E-13 0.439E-14 -.194E-13   -.319E-14 -.170E-15 0.000E+00   0.424E-21 0.587E-21 0.000E+00   0.110E-10 -.603E-11 0.152E-12
   -.108E-05 0.615E-02 -.139E+03   0.327E-14 -.115E-01 0.142E+03   -.813E-18 -.360E-04 -.352E+01   0.256E-09 -.364E-03 0.161E+00
   0.108E-05 -.615E-02 0.139E+03   0.108E-15 0.115E-01 -.142E+03   0.542E-19 0.360E-04 0.352E+01   -.257E-09 0.364E-03 -.161E+00
   0.901E-13 0.629E-14 -.422E-13   0.189E-15 0.486E-15 0.000E+00   -.759E-18 0.454E-18 -.888E-15   0.982E-11 -.557E-11 0.693E-12

 POSITION                                       TOTAL-FORCE (eV/Angst)
      0.00000      0.00000      0.00000        -0.000000     -0.000000      0.000000
      1.88582      1.08874      1.29961         0.000000     -0.000003     -0.278575
      1.88582     -1.08869      3.96246         0.000000      0.000003      0.278575
    total drift:                                0.000000     -0.000000      0.000000

  FREE ENERGIE OF THE ION-ELECTRON SYSTEM (eV)
  free  energy   TOTEN  =       -14.11286081 eV

  energy  without entropy=      -14.10396568  energy(sigma->0) =      -14.10841324

 writing wavefunctions

 total charge

# of ion       s       p       d       f       tot
    1        0.651   0.626   7.943   0.059   9.278
    2        1.479   2.204   0.059   0.000   3.742
    3        1.479   2.204   0.059   0.000   3.742
tot          3.608   5.035   8.061   0.059  16.763